p cnf 553 2463
1 0
-2 0
-3 0
-4 0
-5 0
-6 0
-7 0
50 8 0
-50 -8 0
8 9 10 11 12 13 14 0
-344 -345 0
-344 -346 0
-345 -346 0
-347 -348 0
-347 -349 0
-348 -349 0
-8 344 0
-8 347 0
-9 344 0
-9 348 0
-10 344 0
-10 349 0
-11 345 0
-11 347 0
-12 345 0
-12 348 0
-13 345 0
-13 349 0
-14 346 0
-14 347 0
-8 1 15 0
-8 1 57 0
-8 15 57 0
-9 2 16 0
-9 2 58 0
-9 16 58 0
-10 3 17 0
-10 3 59 0
-10 17 59 0
-11 4 18 0
-11 4 60 0
-11 18 60 0
-12 5 19 0
-12 5 61 0
-12 19 61 0
-13 6 20 0
-13 6 62 0
-13 20 62 0
-14 7 21 0
-14 7 63 0
-14 21 63 0
-8 -1 -15 -57 0
-9 -2 -16 -58 0
-10 -3 -17 -59 0
-11 -4 -18 -60 0
-12 -5 -19 -61 0
-13 -6 -20 -62 0
-14 -7 -21 -63 0
15 0
-16 0
-17 0
-18 0
-19 0
-20 0
-21 0
8 22 64 0
-8 -22 0
-8 -64 0
-22 -64 0
23 0
-22 0
-24 0
-25 0
-26 0
-27 0
-28 0
16 30 72 0
-16 -30 0
-16 -72 0
-30 -72 0
31 0
-29 0
-30 0
-32 0
-33 0
-34 0
-35 0
24 38 80 0
-24 -38 0
-24 -80 0
-38 -80 0
39 0
-36 0
-37 0
-38 0
-40 0
-41 0
-42 0
32 46 88 0
-32 -46 0
-32 -88 0
-46 -88 0
47 0
-43 0
-44 0
-45 0
-46 0
-48 0
-49 0
96 40 0
-96 -40 0
55 0
-50 0
-51 0
-52 0
-53 0
-54 0
-56 0
104 62 6 0
-104 -62 0
-104 -6 0
-62 -6 0
57 58 59 60 61 62 63 0
-350 -351 0
-350 -352 0
-351 -352 0
-353 -354 0
-353 -355 0
-354 -355 0
-57 350 0
-57 353 0
-58 350 0
-58 354 0
-59 350 0
-59 355 0
-60 351 0
-60 353 0
-61 351 0
-61 354 0
-62 351 0
-62 355 0
-63 352 0
-63 353 0
-57 106 64 8 0
-57 106 64 50 0
-57 106 8 50 0
-57 64 8 50 0
-58 107 65 9 0
-58 107 65 51 0
-58 107 9 51 0
-58 65 9 51 0
-59 108 66 10 0
-59 108 66 52 0
-59 108 10 52 0
-59 66 10 52 0
-60 109 67 11 0
-60 109 67 53 0
-60 109 11 53 0
-60 67 11 53 0
-61 110 68 12 0
-61 110 68 54 0
-61 110 12 54 0
-61 68 12 54 0
-62 111 69 13 0
-62 111 69 55 0
-62 111 13 55 0
-62 69 13 55 0
-63 112 70 14 0
-63 112 70 56 0
-63 112 14 56 0
-63 70 14 56 0
-57 -106 -64 -8 0
-57 -106 -64 -50 0
-57 -106 -8 -50 0
-57 -64 -8 -50 0
-58 -107 -65 -9 0
-58 -107 -65 -51 0
-58 -107 -9 -51 0
-58 -65 -9 -51 0
-59 -108 -66 -10 0
-59 -108 -66 -52 0
-59 -108 -10 -52 0
-59 -66 -10 -52 0
-60 -109 -67 -11 0
-60 -109 -67 -53 0
-60 -109 -11 -53 0
-60 -67 -11 -53 0
-61 -110 -68 -12 0
-61 -110 -68 -54 0
-61 -110 -12 -54 0
-61 -68 -12 -54 0
-62 -111 -69 -13 0
-62 -111 -69 -55 0
-62 -111 -13 -55 0
-62 -69 -13 -55 0
-63 -112 -70 -14 0
-63 -112 -70 -56 0
-63 -112 -14 -56 0
-63 -70 -14 -56 0
64 65 66 67 68 69 70 0
-356 -357 0
-356 -358 0
-357 -358 0
-359 -360 0
-359 -361 0
-360 -361 0
-64 356 0
-64 359 0
-65 356 0
-65 360 0
-66 356 0
-66 361 0
-67 357 0
-67 359 0
-68 357 0
-68 360 0
-69 357 0
-69 361 0
-70 358 0
-70 359 0
-64 113 71 15 0
-64 113 71 57 0
-64 113 15 57 0
-64 71 15 57 0
-65 114 72 16 0
-65 114 72 58 0
-65 114 16 58 0
-65 72 16 58 0
-66 115 73 17 0
-66 115 73 59 0
-66 115 17 59 0
-66 73 17 59 0
-67 116 74 18 0
-67 116 74 60 0
-67 116 18 60 0
-67 74 18 60 0
-68 117 75 19 0
-68 117 75 61 0
-68 117 19 61 0
-68 75 19 61 0
-69 118 76 20 0
-69 118 76 62 0
-69 118 20 62 0
-69 76 20 62 0
-70 119 77 21 0
-70 119 77 63 0
-70 119 21 63 0
-70 77 21 63 0
-64 -113 -71 -15 0
-64 -113 -71 -57 0
-64 -113 -15 -57 0
-64 -71 -15 -57 0
-65 -114 -72 -16 0
-65 -114 -72 -58 0
-65 -114 -16 -58 0
-65 -72 -16 -58 0
-66 -115 -73 -17 0
-66 -115 -73 -59 0
-66 -115 -17 -59 0
-66 -73 -17 -59 0
-67 -116 -74 -18 0
-67 -116 -74 -60 0
-67 -116 -18 -60 0
-67 -74 -18 -60 0
-68 -117 -75 -19 0
-68 -117 -75 -61 0
-68 -117 -19 -61 0
-68 -75 -19 -61 0
-69 -118 -76 -20 0
-69 -118 -76 -62 0
-69 -118 -20 -62 0
-69 -76 -20 -62 0
-70 -119 -77 -21 0
-70 -119 -77 -63 0
-70 -119 -21 -63 0
-70 -77 -21 -63 0
71 72 73 74 75 76 77 0
-362 -363 0
-362 -364 0
-363 -364 0
-365 -366 0
-365 -367 0
-366 -367 0
-71 362 0
-71 365 0
-72 362 0
-72 366 0
-73 362 0
-73 367 0
-74 363 0
-74 365 0
-75 363 0
-75 366 0
-76 363 0
-76 367 0
-77 364 0
-77 365 0
-71 120 78 22 0
-71 120 78 64 0
-71 120 22 64 0
-71 78 22 64 0
-72 121 79 23 0
-72 121 79 65 0
-72 121 23 65 0
-72 79 23 65 0
-73 122 80 24 0
-73 122 80 66 0
-73 122 24 66 0
-73 80 24 66 0
-74 123 81 25 0
-74 123 81 67 0
-74 123 25 67 0
-74 81 25 67 0
-75 124 82 26 0
-75 124 82 68 0
-75 124 26 68 0
-75 82 26 68 0
-76 125 83 27 0
-76 125 83 69 0
-76 125 27 69 0
-76 83 27 69 0
-77 126 84 28 0
-77 126 84 70 0
-77 126 28 70 0
-77 84 28 70 0
-71 -120 -78 -22 0
-71 -120 -78 -64 0
-71 -120 -22 -64 0
-71 -78 -22 -64 0
-72 -121 -79 -23 0
-72 -121 -79 -65 0
-72 -121 -23 -65 0
-72 -79 -23 -65 0
-73 -122 -80 -24 0
-73 -122 -80 -66 0
-73 -122 -24 -66 0
-73 -80 -24 -66 0
-74 -123 -81 -25 0
-74 -123 -81 -67 0
-74 -123 -25 -67 0
-74 -81 -25 -67 0
-75 -124 -82 -26 0
-75 -124 -82 -68 0
-75 -124 -26 -68 0
-75 -82 -26 -68 0
-76 -125 -83 -27 0
-76 -125 -83 -69 0
-76 -125 -27 -69 0
-76 -83 -27 -69 0
-77 -126 -84 -28 0
-77 -126 -84 -70 0
-77 -126 -28 -70 0
-77 -84 -28 -70 0
78 79 80 81 82 83 84 0
-368 -369 0
-368 -370 0
-369 -370 0
-371 -372 0
-371 -373 0
-372 -373 0
-78 368 0
-78 371 0
-79 368 0
-79 372 0
-80 368 0
-80 373 0
-81 369 0
-81 371 0
-82 369 0
-82 372 0
-83 369 0
-83 373 0
-84 370 0
-84 371 0
-78 127 85 29 0
-78 127 85 71 0
-78 127 29 71 0
-78 85 29 71 0
-79 128 86 30 0
-79 128 86 72 0
-79 128 30 72 0
-79 86 30 72 0
-80 129 87 31 0
-80 129 87 73 0
-80 129 31 73 0
-80 87 31 73 0
-81 130 88 32 0
-81 130 88 74 0
-81 130 32 74 0
-81 88 32 74 0
-82 131 89 33 0
-82 131 89 75 0
-82 131 33 75 0
-82 89 33 75 0
-83 132 90 34 0
-83 132 90 76 0
-83 132 34 76 0
-83 90 34 76 0
-84 133 91 35 0
-84 133 91 77 0
-84 133 35 77 0
-84 91 35 77 0
-78 -127 -85 -29 0
-78 -127 -85 -71 0
-78 -127 -29 -71 0
-78 -85 -29 -71 0
-79 -128 -86 -30 0
-79 -128 -86 -72 0
-79 -128 -30 -72 0
-79 -86 -30 -72 0
-80 -129 -87 -31 0
-80 -129 -87 -73 0
-80 -129 -31 -73 0
-80 -87 -31 -73 0
-81 -130 -88 -32 0
-81 -130 -88 -74 0
-81 -130 -32 -74 0
-81 -88 -32 -74 0
-82 -131 -89 -33 0
-82 -131 -89 -75 0
-82 -131 -33 -75 0
-82 -89 -33 -75 0
-83 -132 -90 -34 0
-83 -132 -90 -76 0
-83 -132 -34 -76 0
-83 -90 -34 -76 0
-84 -133 -91 -35 0
-84 -133 -91 -77 0
-84 -133 -35 -77 0
-84 -91 -35 -77 0
85 86 87 88 89 90 91 0
-374 -375 0
-374 -376 0
-375 -376 0
-377 -378 0
-377 -379 0
-378 -379 0
-85 374 0
-85 377 0
-86 374 0
-86 378 0
-87 374 0
-87 379 0
-88 375 0
-88 377 0
-89 375 0
-89 378 0
-90 375 0
-90 379 0
-91 376 0
-91 377 0
-85 134 92 36 0
-85 134 92 78 0
-85 134 36 78 0
-85 92 36 78 0
-86 135 93 37 0
-86 135 93 79 0
-86 135 37 79 0
-86 93 37 79 0
-87 136 94 38 0
-87 136 94 80 0
-87 136 38 80 0
-87 94 38 80 0
-88 137 95 39 0
-88 137 95 81 0
-88 137 39 81 0
-88 95 39 81 0
-89 138 96 40 0
-89 138 96 82 0
-89 138 40 82 0
-89 96 40 82 0
-90 139 97 41 0
-90 139 97 83 0
-90 139 41 83 0
-90 97 41 83 0
-91 140 98 42 0
-91 140 98 84 0
-91 140 42 84 0
-91 98 42 84 0
-85 -134 -92 -36 0
-85 -134 -92 -78 0
-85 -134 -36 -78 0
-85 -92 -36 -78 0
-86 -135 -93 -37 0
-86 -135 -93 -79 0
-86 -135 -37 -79 0
-86 -93 -37 -79 0
-87 -136 -94 -38 0
-87 -136 -94 -80 0
-87 -136 -38 -80 0
-87 -94 -38 -80 0
-88 -137 -95 -39 0
-88 -137 -95 -81 0
-88 -137 -39 -81 0
-88 -95 -39 -81 0
-89 -138 -96 -40 0
-89 -138 -96 -82 0
-89 -138 -40 -82 0
-89 -96 -40 -82 0
-90 -139 -97 -41 0
-90 -139 -97 -83 0
-90 -139 -41 -83 0
-90 -97 -41 -83 0
-91 -140 -98 -42 0
-91 -140 -98 -84 0
-91 -140 -42 -84 0
-91 -98 -42 -84 0
92 93 94 95 96 97 98 0
-380 -381 0
-380 -382 0
-381 -382 0
-383 -384 0
-383 -385 0
-384 -385 0
-92 380 0
-92 383 0
-93 380 0
-93 384 0
-94 380 0
-94 385 0
-95 381 0
-95 383 0
-96 381 0
-96 384 0
-97 381 0
-97 385 0
-98 382 0
-98 383 0
-92 141 85 0
-92 141 43 0
-92 85 43 0
-93 142 86 0
-93 142 44 0
-93 86 44 0
-94 143 87 0
-94 143 45 0
-94 87 45 0
-95 144 88 0
-95 144 46 0
-95 88 46 0
-96 145 89 0
-96 145 47 0
-96 89 47 0
-97 146 90 0
-97 146 48 0
-97 90 48 0
-98 147 91 0
-98 147 49 0
-98 91 49 0
-92 -141 -85 -43 0
-93 -142 -86 -44 0
-94 -143 -87 -45 0
-95 -144 -88 -46 0
-96 -145 -89 -47 0
-97 -146 -90 -48 0
-98 -147 -91 -49 0
99 100 101 102 103 104 105 0
-386 -387 0
-386 -388 0
-387 -388 0
-389 -390 0
-389 -391 0
-390 -391 0
-99 386 0
-99 389 0
-100 386 0
-100 390 0
-101 386 0
-101 391 0
-102 387 0
-102 389 0
-103 387 0
-103 390 0
-104 387 0
-104 391 0
-105 388 0
-105 389 0
-99 148 106 0
-99 148 50 0
-99 106 50 0
-100 149 107 0
-100 149 51 0
-100 107 51 0
-101 150 108 0
-101 150 52 0
-101 108 52 0
-102 151 109 0
-102 151 53 0
-102 109 53 0
-103 152 110 0
-103 152 54 0
-103 110 54 0
-104 153 111 0
-104 153 55 0
-104 111 55 0
-105 154 112 0
-105 154 56 0
-105 112 56 0
-99 -148 -106 -50 0
-100 -149 -107 -51 0
-101 -150 -108 -52 0
-102 -151 -109 -53 0
-103 -152 -110 -54 0
-104 -153 -111 -55 0
-105 -154 -112 -56 0
112 0
-106 0
-107 0
-108 0
-109 0
-110 0
-111 0
161 119 63 105 0
-161 -119 0
-161 -63 0
-161 -105 0
-119 -63 0
-119 -105 0
-63 -105 0
113 114 115 116 117 118 119 0
-392 -393 0
-392 -394 0
-393 -394 0
-395 -396 0
-395 -397 0
-396 -397 0
-113 392 0
-113 395 0
-114 392 0
-114 396 0
-115 392 0
-115 397 0
-116 393 0
-116 395 0
-117 393 0
-117 396 0
-118 393 0
-118 397 0
-119 394 0
-119 395 0
-113 162 120 64 0
-113 162 120 106 0
-113 162 64 106 0
-113 120 64 106 0
-114 163 121 65 0
-114 163 121 107 0
-114 163 65 107 0
-114 121 65 107 0
-115 164 122 66 0
-115 164 122 108 0
-115 164 66 108 0
-115 122 66 108 0
-116 165 123 67 0
-116 165 123 109 0
-116 165 67 109 0
-116 123 67 109 0
-117 166 124 68 0
-117 166 124 110 0
-117 166 68 110 0
-117 124 68 110 0
-118 167 125 69 0
-118 167 125 111 0
-118 167 69 111 0
-118 125 69 111 0
-119 168 126 70 0
-119 168 126 112 0
-119 168 70 112 0
-119 126 70 112 0
-113 -162 -120 -64 0
-113 -162 -120 -106 0
-113 -162 -64 -106 0
-113 -120 -64 -106 0
-114 -163 -121 -65 0
-114 -163 -121 -107 0
-114 -163 -65 -107 0
-114 -121 -65 -107 0
-115 -164 -122 -66 0
-115 -164 -122 -108 0
-115 -164 -66 -108 0
-115 -122 -66 -108 0
-116 -165 -123 -67 0
-116 -165 -123 -109 0
-116 -165 -67 -109 0
-116 -123 -67 -109 0
-117 -166 -124 -68 0
-117 -166 -124 -110 0
-117 -166 -68 -110 0
-117 -124 -68 -110 0
-118 -167 -125 -69 0
-118 -167 -125 -111 0
-118 -167 -69 -111 0
-118 -125 -69 -111 0
-119 -168 -126 -70 0
-119 -168 -126 -112 0
-119 -168 -70 -112 0
-119 -126 -70 -112 0
120 121 122 123 124 125 126 0
-398 -399 0
-398 -400 0
-399 -400 0
-401 -402 0
-401 -403 0
-402 -403 0
-120 398 0
-120 401 0
-121 398 0
-121 402 0
-122 398 0
-122 403 0
-123 399 0
-123 401 0
-124 399 0
-124 402 0
-125 399 0
-125 403 0
-126 400 0
-126 401 0
-120 169 127 71 0
-120 169 127 113 0
-120 169 71 113 0
-120 127 71 113 0
-121 170 128 72 0
-121 170 128 114 0
-121 170 72 114 0
-121 128 72 114 0
-122 171 129 73 0
-122 171 129 115 0
-122 171 73 115 0
-122 129 73 115 0
-123 172 130 74 0
-123 172 130 116 0
-123 172 74 116 0
-123 130 74 116 0
-124 173 131 75 0
-124 173 131 117 0
-124 173 75 117 0
-124 131 75 117 0
-125 174 132 76 0
-125 174 132 118 0
-125 174 76 118 0
-125 132 76 118 0
-126 175 133 77 0
-126 175 133 119 0
-126 175 77 119 0
-126 133 77 119 0
-120 -169 -127 -71 0
-120 -169 -127 -113 0
-120 -169 -71 -113 0
-120 -127 -71 -113 0
-121 -170 -128 -72 0
-121 -170 -128 -114 0
-121 -170 -72 -114 0
-121 -128 -72 -114 0
-122 -171 -129 -73 0
-122 -171 -129 -115 0
-122 -171 -73 -115 0
-122 -129 -73 -115 0
-123 -172 -130 -74 0
-123 -172 -130 -116 0
-123 -172 -74 -116 0
-123 -130 -74 -116 0
-124 -173 -131 -75 0
-124 -173 -131 -117 0
-124 -173 -75 -117 0
-124 -131 -75 -117 0
-125 -174 -132 -76 0
-125 -174 -132 -118 0
-125 -174 -76 -118 0
-125 -132 -76 -118 0
-126 -175 -133 -77 0
-126 -175 -133 -119 0
-126 -175 -77 -119 0
-126 -133 -77 -119 0
127 128 129 130 131 132 133 0
-404 -405 0
-404 -406 0
-405 -406 0
-407 -408 0
-407 -409 0
-408 -409 0
-127 404 0
-127 407 0
-128 404 0
-128 408 0
-129 404 0
-129 409 0
-130 405 0
-130 407 0
-131 405 0
-131 408 0
-132 405 0
-132 409 0
-133 406 0
-133 407 0
-127 176 134 78 0
-127 176 134 120 0
-127 176 78 120 0
-127 134 78 120 0
-128 177 135 79 0
-128 177 135 121 0
-128 177 79 121 0
-128 135 79 121 0
-129 178 136 80 0
-129 178 136 122 0
-129 178 80 122 0
-129 136 80 122 0
-130 179 137 81 0
-130 179 137 123 0
-130 179 81 123 0
-130 137 81 123 0
-131 180 138 82 0
-131 180 138 124 0
-131 180 82 124 0
-131 138 82 124 0
-132 181 139 83 0
-132 181 139 125 0
-132 181 83 125 0
-132 139 83 125 0
-133 182 140 84 0
-133 182 140 126 0
-133 182 84 126 0
-133 140 84 126 0
-127 -176 -134 -78 0
-127 -176 -134 -120 0
-127 -176 -78 -120 0
-127 -134 -78 -120 0
-128 -177 -135 -79 0
-128 -177 -135 -121 0
-128 -177 -79 -121 0
-128 -135 -79 -121 0
-129 -178 -136 -80 0
-129 -178 -136 -122 0
-129 -178 -80 -122 0
-129 -136 -80 -122 0
-130 -179 -137 -81 0
-130 -179 -137 -123 0
-130 -179 -81 -123 0
-130 -137 -81 -123 0
-131 -180 -138 -82 0
-131 -180 -138 -124 0
-131 -180 -82 -124 0
-131 -138 -82 -124 0
-132 -181 -139 -83 0
-132 -181 -139 -125 0
-132 -181 -83 -125 0
-132 -139 -83 -125 0
-133 -182 -140 -84 0
-133 -182 -140 -126 0
-133 -182 -84 -126 0
-133 -140 -84 -126 0
134 135 136 137 138 139 140 0
-410 -411 0
-410 -412 0
-411 -412 0
-413 -414 0
-413 -415 0
-414 -415 0
-134 410 0
-134 413 0
-135 410 0
-135 414 0
-136 410 0
-136 415 0
-137 411 0
-137 413 0
-138 411 0
-138 414 0
-139 411 0
-139 415 0
-140 412 0
-140 413 0
-134 183 141 85 0
-134 183 141 127 0
-134 183 85 127 0
-134 141 85 127 0
-135 184 142 86 0
-135 184 142 128 0
-135 184 86 128 0
-135 142 86 128 0
-136 185 143 87 0
-136 185 143 129 0
-136 185 87 129 0
-136 143 87 129 0
-137 186 144 88 0
-137 186 144 130 0
-137 186 88 130 0
-137 144 88 130 0
-138 187 145 89 0
-138 187 145 131 0
-138 187 89 131 0
-138 145 89 131 0
-139 188 146 90 0
-139 188 146 132 0
-139 188 90 132 0
-139 146 90 132 0
-140 189 147 91 0
-140 189 147 133 0
-140 189 91 133 0
-140 147 91 133 0
-134 -183 -141 -85 0
-134 -183 -141 -127 0
-134 -183 -85 -127 0
-134 -141 -85 -127 0
-135 -184 -142 -86 0
-135 -184 -142 -128 0
-135 -184 -86 -128 0
-135 -142 -86 -128 0
-136 -185 -143 -87 0
-136 -185 -143 -129 0
-136 -185 -87 -129 0
-136 -143 -87 -129 0
-137 -186 -144 -88 0
-137 -186 -144 -130 0
-137 -186 -88 -130 0
-137 -144 -88 -130 0
-138 -187 -145 -89 0
-138 -187 -145 -131 0
-138 -187 -89 -131 0
-138 -145 -89 -131 0
-139 -188 -146 -90 0
-139 -188 -146 -132 0
-139 -188 -90 -132 0
-139 -146 -90 -132 0
-140 -189 -147 -91 0
-140 -189 -147 -133 0
-140 -189 -91 -133 0
-140 -147 -91 -133 0
141 142 143 144 145 146 147 0
-416 -417 0
-416 -418 0
-417 -418 0
-419 -420 0
-419 -421 0
-420 -421 0
-141 416 0
-141 419 0
-142 416 0
-142 420 0
-143 416 0
-143 421 0
-144 417 0
-144 419 0
-145 417 0
-145 420 0
-146 417 0
-146 421 0
-147 418 0
-147 419 0
-141 190 134 0
-141 190 92 0
-141 134 92 0
-142 191 135 0
-142 191 93 0
-142 135 93 0
-143 192 136 0
-143 192 94 0
-143 136 94 0
-144 193 137 0
-144 193 95 0
-144 137 95 0
-145 194 138 0
-145 194 96 0
-145 138 96 0
-146 195 139 0
-146 195 97 0
-146 139 97 0
-147 196 140 0
-147 196 98 0
-147 140 98 0
-141 -190 -134 -92 0
-142 -191 -135 -93 0
-143 -192 -136 -94 0
-144 -193 -137 -95 0
-145 -194 -138 -96 0
-146 -195 -139 -97 0
-147 -196 -140 -98 0
148 149 150 151 152 153 154 0
-422 -423 0
-422 -424 0
-423 -424 0
-425 -426 0
-425 -427 0
-426 -427 0
-148 422 0
-148 425 0
-149 422 0
-149 426 0
-150 422 0
-150 427 0
-151 423 0
-151 425 0
-152 423 0
-152 426 0
-153 423 0
-153 427 0
-154 424 0
-154 425 0
-148 197 155 0
-148 197 99 0
-148 155 99 0
-149 198 156 0
-149 198 100 0
-149 156 100 0
-150 199 157 0
-150 199 101 0
-150 157 101 0
-151 200 158 0
-151 200 102 0
-151 158 102 0
-152 201 159 0
-152 201 103 0
-152 159 103 0
-153 202 160 0
-153 202 104 0
-153 160 104 0
-154 203 161 0
-154 203 105 0
-154 161 105 0
-148 -197 -155 -99 0
-149 -198 -156 -100 0
-150 -199 -157 -101 0
-151 -200 -158 -102 0
-152 -201 -159 -103 0
-153 -202 -160 -104 0
-154 -203 -161 -105 0
155 156 157 158 159 160 161 0
-428 -429 0
-428 -430 0
-429 -430 0
-431 -432 0
-431 -433 0
-432 -433 0
-155 428 0
-155 431 0
-156 428 0
-156 432 0
-157 428 0
-157 433 0
-158 429 0
-158 431 0
-159 429 0
-159 432 0
-160 429 0
-160 433 0
-161 430 0
-161 431 0
-155 204 162 106 0
-155 204 162 148 0
-155 204 106 148 0
-155 162 106 148 0
-156 205 163 107 0
-156 205 163 149 0
-156 205 107 149 0
-156 163 107 149 0
-157 206 164 108 0
-157 206 164 150 0
-157 206 108 150 0
-157 164 108 150 0
-158 207 165 109 0
-158 207 165 151 0
-158 207 109 151 0
-158 165 109 151 0
-159 208 166 110 0
-159 208 166 152 0
-159 208 110 152 0
-159 166 110 152 0
-160 209 167 111 0
-160 209 167 153 0
-160 209 111 153 0
-160 167 111 153 0
-161 210 168 112 0
-161 210 168 154 0
-161 210 112 154 0
-161 168 112 154 0
-155 -204 -162 -106 0
-155 -204 -162 -148 0
-155 -204 -106 -148 0
-155 -162 -106 -148 0
-156 -205 -163 -107 0
-156 -205 -163 -149 0
-156 -205 -107 -149 0
-156 -163 -107 -149 0
-157 -206 -164 -108 0
-157 -206 -164 -150 0
-157 -206 -108 -150 0
-157 -164 -108 -150 0
-158 -207 -165 -109 0
-158 -207 -165 -151 0
-158 -207 -109 -151 0
-158 -165 -109 -151 0
-159 -208 -166 -110 0
-159 -208 -166 -152 0
-159 -208 -110 -152 0
-159 -166 -110 -152 0
-160 -209 -167 -111 0
-160 -209 -167 -153 0
-160 -209 -111 -153 0
-160 -167 -111 -153 0
-161 -210 -168 -112 0
-161 -210 -168 -154 0
-161 -210 -112 -154 0
-161 -168 -112 -154 0
162 163 164 165 166 167 168 0
-434 -435 0
-434 -436 0
-435 -436 0
-437 -438 0
-437 -439 0
-438 -439 0
-162 434 0
-162 437 0
-163 434 0
-163 438 0
-164 434 0
-164 439 0
-165 435 0
-165 437 0
-166 435 0
-166 438 0
-167 435 0
-167 439 0
-168 436 0
-168 437 0
-162 211 169 113 0
-162 211 169 155 0
-162 211 113 155 0
-162 169 113 155 0
-163 212 170 114 0
-163 212 170 156 0
-163 212 114 156 0
-163 170 114 156 0
-164 213 171 115 0
-164 213 171 157 0
-164 213 115 157 0
-164 171 115 157 0
-165 214 172 116 0
-165 214 172 158 0
-165 214 116 158 0
-165 172 116 158 0
-166 215 173 117 0
-166 215 173 159 0
-166 215 117 159 0
-166 173 117 159 0
-167 216 174 118 0
-167 216 174 160 0
-167 216 118 160 0
-167 174 118 160 0
-168 217 175 119 0
-168 217 175 161 0
-168 217 119 161 0
-168 175 119 161 0
-162 -211 -169 -113 0
-162 -211 -169 -155 0
-162 -211 -113 -155 0
-162 -169 -113 -155 0
-163 -212 -170 -114 0
-163 -212 -170 -156 0
-163 -212 -114 -156 0
-163 -170 -114 -156 0
-164 -213 -171 -115 0
-164 -213 -171 -157 0
-164 -213 -115 -157 0
-164 -171 -115 -157 0
-165 -214 -172 -116 0
-165 -214 -172 -158 0
-165 -214 -116 -158 0
-165 -172 -116 -158 0
-166 -215 -173 -117 0
-166 -215 -173 -159 0
-166 -215 -117 -159 0
-166 -173 -117 -159 0
-167 -216 -174 -118 0
-167 -216 -174 -160 0
-167 -216 -118 -160 0
-167 -174 -118 -160 0
-168 -217 -175 -119 0
-168 -217 -175 -161 0
-168 -217 -119 -161 0
-168 -175 -119 -161 0
169 170 171 172 173 174 175 0
-440 -441 0
-440 -442 0
-441 -442 0
-443 -444 0
-443 -445 0
-444 -445 0
-169 440 0
-169 443 0
-170 440 0
-170 444 0
-171 440 0
-171 445 0
-172 441 0
-172 443 0
-173 441 0
-173 444 0
-174 441 0
-174 445 0
-175 442 0
-175 443 0
-169 218 176 120 0
-169 218 176 162 0
-169 218 120 162 0
-169 176 120 162 0
-170 219 177 121 0
-170 219 177 163 0
-170 219 121 163 0
-170 177 121 163 0
-171 220 178 122 0
-171 220 178 164 0
-171 220 122 164 0
-171 178 122 164 0
-172 221 179 123 0
-172 221 179 165 0
-172 221 123 165 0
-172 179 123 165 0
-173 222 180 124 0
-173 222 180 166 0
-173 222 124 166 0
-173 180 124 166 0
-174 223 181 125 0
-174 223 181 167 0
-174 223 125 167 0
-174 181 125 167 0
-175 224 182 126 0
-175 224 182 168 0
-175 224 126 168 0
-175 182 126 168 0
-169 -218 -176 -120 0
-169 -218 -176 -162 0
-169 -218 -120 -162 0
-169 -176 -120 -162 0
-170 -219 -177 -121 0
-170 -219 -177 -163 0
-170 -219 -121 -163 0
-170 -177 -121 -163 0
-171 -220 -178 -122 0
-171 -220 -178 -164 0
-171 -220 -122 -164 0
-171 -178 -122 -164 0
-172 -221 -179 -123 0
-172 -221 -179 -165 0
-172 -221 -123 -165 0
-172 -179 -123 -165 0
-173 -222 -180 -124 0
-173 -222 -180 -166 0
-173 -222 -124 -166 0
-173 -180 -124 -166 0
-174 -223 -181 -125 0
-174 -223 -181 -167 0
-174 -223 -125 -167 0
-174 -181 -125 -167 0
-175 -224 -182 -126 0
-175 -224 -182 -168 0
-175 -224 -126 -168 0
-175 -182 -126 -168 0
178 0
-176 0
-177 0
-179 0
-180 0
-181 0
-182 0
227 185 129 171 0
-227 -185 0
-227 -129 0
-227 -171 0
-185 -129 0
-185 -171 0
-129 -171 0
183 184 185 186 187 188 189 0
-446 -447 0
-446 -448 0
-447 -448 0
-449 -450 0
-449 -451 0
-450 -451 0
-183 446 0
-183 449 0
-184 446 0
-184 450 0
-185 446 0
-185 451 0
-186 447 0
-186 449 0
-187 447 0
-187 450 0
-188 447 0
-188 451 0
-189 448 0
-189 449 0
-183 232 190 134 0
-183 232 190 176 0
-183 232 134 176 0
-183 190 134 176 0
-184 233 191 135 0
-184 233 191 177 0
-184 233 135 177 0
-184 191 135 177 0
-185 234 192 136 0
-185 234 192 178 0
-185 234 136 178 0
-185 192 136 178 0
-186 235 193 137 0
-186 235 193 179 0
-186 235 137 179 0
-186 193 137 179 0
-187 236 194 138 0
-187 236 194 180 0
-187 236 138 180 0
-187 194 138 180 0
-188 237 195 139 0
-188 237 195 181 0
-188 237 139 181 0
-188 195 139 181 0
-189 238 196 140 0
-189 238 196 182 0
-189 238 140 182 0
-189 196 140 182 0
-183 -232 -190 -134 0
-183 -232 -190 -176 0
-183 -232 -134 -176 0
-183 -190 -134 -176 0
-184 -233 -191 -135 0
-184 -233 -191 -177 0
-184 -233 -135 -177 0
-184 -191 -135 -177 0
-185 -234 -192 -136 0
-185 -234 -192 -178 0
-185 -234 -136 -178 0
-185 -192 -136 -178 0
-186 -235 -193 -137 0
-186 -235 -193 -179 0
-186 -235 -137 -179 0
-186 -193 -137 -179 0
-187 -236 -194 -138 0
-187 -236 -194 -180 0
-187 -236 -138 -180 0
-187 -194 -138 -180 0
-188 -237 -195 -139 0
-188 -237 -195 -181 0
-188 -237 -139 -181 0
-188 -195 -139 -181 0
-189 -238 -196 -140 0
-189 -238 -196 -182 0
-189 -238 -140 -182 0
-189 -196 -140 -182 0
190 191 192 193 194 195 196 0
-452 -453 0
-452 -454 0
-453 -454 0
-455 -456 0
-455 -457 0
-456 -457 0
-190 452 0
-190 455 0
-191 452 0
-191 456 0
-192 452 0
-192 457 0
-193 453 0
-193 455 0
-194 453 0
-194 456 0
-195 453 0
-195 457 0
-196 454 0
-196 455 0
-190 239 183 0
-190 239 141 0
-190 183 141 0
-191 240 184 0
-191 240 142 0
-191 184 142 0
-192 241 185 0
-192 241 143 0
-192 185 143 0
-193 242 186 0
-193 242 144 0
-193 186 144 0
-194 243 187 0
-194 243 145 0
-194 187 145 0
-195 244 188 0
-195 244 146 0
-195 188 146 0
-196 245 189 0
-196 245 147 0
-196 189 147 0
-190 -239 -183 -141 0
-191 -240 -184 -142 0
-192 -241 -185 -143 0
-193 -242 -186 -144 0
-194 -243 -187 -145 0
-195 -244 -188 -146 0
-196 -245 -189 -147 0
197 198 199 200 201 202 203 0
-458 -459 0
-458 -460 0
-459 -460 0
-461 -462 0
-461 -463 0
-462 -463 0
-197 458 0
-197 461 0
-198 458 0
-198 462 0
-199 458 0
-199 463 0
-200 459 0
-200 461 0
-201 459 0
-201 462 0
-202 459 0
-202 463 0
-203 460 0
-203 461 0
-197 246 204 0
-197 246 148 0
-197 204 148 0
-198 247 205 0
-198 247 149 0
-198 205 149 0
-199 248 206 0
-199 248 150 0
-199 206 150 0
-200 249 207 0
-200 249 151 0
-200 207 151 0
-201 250 208 0
-201 250 152 0
-201 208 152 0
-202 251 209 0
-202 251 153 0
-202 209 153 0
-203 252 210 0
-203 252 154 0
-203 210 154 0
-197 -246 -204 -148 0
-198 -247 -205 -149 0
-199 -248 -206 -150 0
-200 -249 -207 -151 0
-201 -250 -208 -152 0
-202 -251 -209 -153 0
-203 -252 -210 -154 0
204 205 206 207 208 209 210 0
-464 -465 0
-464 -466 0
-465 -466 0
-467 -468 0
-467 -469 0
-468 -469 0
-204 464 0
-204 467 0
-205 464 0
-205 468 0
-206 464 0
-206 469 0
-207 465 0
-207 467 0
-208 465 0
-208 468 0
-209 465 0
-209 469 0
-210 466 0
-210 467 0
-204 253 211 155 0
-204 253 211 197 0
-204 253 155 197 0
-204 211 155 197 0
-205 254 212 156 0
-205 254 212 198 0
-205 254 156 198 0
-205 212 156 198 0
-206 255 213 157 0
-206 255 213 199 0
-206 255 157 199 0
-206 213 157 199 0
-207 256 214 158 0
-207 256 214 200 0
-207 256 158 200 0
-207 214 158 200 0
-208 257 215 159 0
-208 257 215 201 0
-208 257 159 201 0
-208 215 159 201 0
-209 258 216 160 0
-209 258 216 202 0
-209 258 160 202 0
-209 216 160 202 0
-210 259 217 161 0
-210 259 217 203 0
-210 259 161 203 0
-210 217 161 203 0
-204 -253 -211 -155 0
-204 -253 -211 -197 0
-204 -253 -155 -197 0
-204 -211 -155 -197 0
-205 -254 -212 -156 0
-205 -254 -212 -198 0
-205 -254 -156 -198 0
-205 -212 -156 -198 0
-206 -255 -213 -157 0
-206 -255 -213 -199 0
-206 -255 -157 -199 0
-206 -213 -157 -199 0
-207 -256 -214 -158 0
-207 -256 -214 -200 0
-207 -256 -158 -200 0
-207 -214 -158 -200 0
-208 -257 -215 -159 0
-208 -257 -215 -201 0
-208 -257 -159 -201 0
-208 -215 -159 -201 0
-209 -258 -216 -160 0
-209 -258 -216 -202 0
-209 -258 -160 -202 0
-209 -216 -160 -202 0
-210 -259 -217 -161 0
-210 -259 -217 -203 0
-210 -259 -161 -203 0
-210 -217 -161 -203 0
211 212 213 214 215 216 217 0
-470 -471 0
-470 -472 0
-471 -472 0
-473 -474 0
-473 -475 0
-474 -475 0
-211 470 0
-211 473 0
-212 470 0
-212 474 0
-213 470 0
-213 475 0
-214 471 0
-214 473 0
-215 471 0
-215 474 0
-216 471 0
-216 475 0
-217 472 0
-217 473 0
-211 260 218 162 0
-211 260 218 204 0
-211 260 162 204 0
-211 218 162 204 0
-212 261 219 163 0
-212 261 219 205 0
-212 261 163 205 0
-212 219 163 205 0
-213 262 220 164 0
-213 262 220 206 0
-213 262 164 206 0
-213 220 164 206 0
-214 263 221 165 0
-214 263 221 207 0
-214 263 165 207 0
-214 221 165 207 0
-215 264 222 166 0
-215 264 222 208 0
-215 264 166 208 0
-215 222 166 208 0
-216 265 223 167 0
-216 265 223 209 0
-216 265 167 209 0
-216 223 167 209 0
-217 266 224 168 0
-217 266 224 210 0
-217 266 168 210 0
-217 224 168 210 0
-211 -260 -218 -162 0
-211 -260 -218 -204 0
-211 -260 -162 -204 0
-211 -218 -162 -204 0
-212 -261 -219 -163 0
-212 -261 -219 -205 0
-212 -261 -163 -205 0
-212 -219 -163 -205 0
-213 -262 -220 -164 0
-213 -262 -220 -206 0
-213 -262 -164 -206 0
-213 -220 -164 -206 0
-214 -263 -221 -165 0
-214 -263 -221 -207 0
-214 -263 -165 -207 0
-214 -221 -165 -207 0
-215 -264 -222 -166 0
-215 -264 -222 -208 0
-215 -264 -166 -208 0
-215 -222 -166 -208 0
-216 -265 -223 -167 0
-216 -265 -223 -209 0
-216 -265 -167 -209 0
-216 -223 -167 -209 0
-217 -266 -224 -168 0
-217 -266 -224 -210 0
-217 -266 -168 -210 0
-217 -224 -168 -210 0
218 219 220 221 222 223 224 0
-476 -477 0
-476 -478 0
-477 -478 0
-479 -480 0
-479 -481 0
-480 -481 0
-218 476 0
-218 479 0
-219 476 0
-219 480 0
-220 476 0
-220 481 0
-221 477 0
-221 479 0
-222 477 0
-222 480 0
-223 477 0
-223 481 0
-224 478 0
-224 479 0
-218 267 225 169 0
-218 267 225 211 0
-218 267 169 211 0
-218 225 169 211 0
-219 268 226 170 0
-219 268 226 212 0
-219 268 170 212 0
-219 226 170 212 0
-220 269 227 171 0
-220 269 227 213 0
-220 269 171 213 0
-220 227 171 213 0
-221 270 228 172 0
-221 270 228 214 0
-221 270 172 214 0
-221 228 172 214 0
-222 271 229 173 0
-222 271 229 215 0
-222 271 173 215 0
-222 229 173 215 0
-223 272 230 174 0
-223 272 230 216 0
-223 272 174 216 0
-223 230 174 216 0
-224 273 231 175 0
-224 273 231 217 0
-224 273 175 217 0
-224 231 175 217 0
-218 -267 -225 -169 0
-218 -267 -225 -211 0
-218 -267 -169 -211 0
-218 -225 -169 -211 0
-219 -268 -226 -170 0
-219 -268 -226 -212 0
-219 -268 -170 -212 0
-219 -226 -170 -212 0
-220 -269 -227 -171 0
-220 -269 -227 -213 0
-220 -269 -171 -213 0
-220 -227 -171 -213 0
-221 -270 -228 -172 0
-221 -270 -228 -214 0
-221 -270 -172 -214 0
-221 -228 -172 -214 0
-222 -271 -229 -173 0
-222 -271 -229 -215 0
-222 -271 -173 -215 0
-222 -229 -173 -215 0
-223 -272 -230 -174 0
-223 -272 -230 -216 0
-223 -272 -174 -216 0
-223 -230 -174 -216 0
-224 -273 -231 -175 0
-224 -273 -231 -217 0
-224 -273 -175 -217 0
-224 -231 -175 -217 0
225 226 227 228 229 230 231 0
-482 -483 0
-482 -484 0
-483 -484 0
-485 -486 0
-485 -487 0
-486 -487 0
-225 482 0
-225 485 0
-226 482 0
-226 486 0
-227 482 0
-227 487 0
-228 483 0
-228 485 0
-229 483 0
-229 486 0
-230 483 0
-230 487 0
-231 484 0
-231 485 0
-225 274 232 176 0
-225 274 232 218 0
-225 274 176 218 0
-225 232 176 218 0
-226 275 233 177 0
-226 275 233 219 0
-226 275 177 219 0
-226 233 177 219 0
-227 276 234 178 0
-227 276 234 220 0
-227 276 178 220 0
-227 234 178 220 0
-228 277 235 179 0
-228 277 235 221 0
-228 277 179 221 0
-228 235 179 221 0
-229 278 236 180 0
-229 278 236 222 0
-229 278 180 222 0
-229 236 180 222 0
-230 279 237 181 0
-230 279 237 223 0
-230 279 181 223 0
-230 237 181 223 0
-231 280 238 182 0
-231 280 238 224 0
-231 280 182 224 0
-231 238 182 224 0
-225 -274 -232 -176 0
-225 -274 -232 -218 0
-225 -274 -176 -218 0
-225 -232 -176 -218 0
-226 -275 -233 -177 0
-226 -275 -233 -219 0
-226 -275 -177 -219 0
-226 -233 -177 -219 0
-227 -276 -234 -178 0
-227 -276 -234 -220 0
-227 -276 -178 -220 0
-227 -234 -178 -220 0
-228 -277 -235 -179 0
-228 -277 -235 -221 0
-228 -277 -179 -221 0
-228 -235 -179 -221 0
-229 -278 -236 -180 0
-229 -278 -236 -222 0
-229 -278 -180 -222 0
-229 -236 -180 -222 0
-230 -279 -237 -181 0
-230 -279 -237 -223 0
-230 -279 -181 -223 0
-230 -237 -181 -223 0
-231 -280 -238 -182 0
-231 -280 -238 -224 0
-231 -280 -182 -224 0
-231 -238 -182 -224 0
232 233 234 235 236 237 238 0
-488 -489 0
-488 -490 0
-489 -490 0
-491 -492 0
-491 -493 0
-492 -493 0
-232 488 0
-232 491 0
-233 488 0
-233 492 0
-234 488 0
-234 493 0
-235 489 0
-235 491 0
-236 489 0
-236 492 0
-237 489 0
-237 493 0
-238 490 0
-238 491 0
-232 281 239 183 0
-232 281 239 225 0
-232 281 183 225 0
-232 239 183 225 0
-233 282 240 184 0
-233 282 240 226 0
-233 282 184 226 0
-233 240 184 226 0
-234 283 241 185 0
-234 283 241 227 0
-234 283 185 227 0
-234 241 185 227 0
-235 284 242 186 0
-235 284 242 228 0
-235 284 186 228 0
-235 242 186 228 0
-236 285 243 187 0
-236 285 243 229 0
-236 285 187 229 0
-236 243 187 229 0
-237 286 244 188 0
-237 286 244 230 0
-237 286 188 230 0
-237 244 188 230 0
-238 287 245 189 0
-238 287 245 231 0
-238 287 189 231 0
-238 245 189 231 0
-232 -281 -239 -183 0
-232 -281 -239 -225 0
-232 -281 -183 -225 0
-232 -239 -183 -225 0
-233 -282 -240 -184 0
-233 -282 -240 -226 0
-233 -282 -184 -226 0
-233 -240 -184 -226 0
-234 -283 -241 -185 0
-234 -283 -241 -227 0
-234 -283 -185 -227 0
-234 -241 -185 -227 0
-235 -284 -242 -186 0
-235 -284 -242 -228 0
-235 -284 -186 -228 0
-235 -242 -186 -228 0
-236 -285 -243 -187 0
-236 -285 -243 -229 0
-236 -285 -187 -229 0
-236 -243 -187 -229 0
-237 -286 -244 -188 0
-237 -286 -244 -230 0
-237 -286 -188 -230 0
-237 -244 -188 -230 0
-238 -287 -245 -189 0
-238 -287 -245 -231 0
-238 -287 -189 -231 0
-238 -245 -189 -231 0
239 240 241 242 243 244 245 0
-494 -495 0
-494 -496 0
-495 -496 0
-497 -498 0
-497 -499 0
-498 -499 0
-239 494 0
-239 497 0
-240 494 0
-240 498 0
-241 494 0
-241 499 0
-242 495 0
-242 497 0
-243 495 0
-243 498 0
-244 495 0
-244 499 0
-245 496 0
-245 497 0
-239 288 232 0
-239 288 190 0
-239 232 190 0
-240 289 233 0
-240 289 191 0
-240 233 191 0
-241 290 234 0
-241 290 192 0
-241 234 192 0
-242 291 235 0
-242 291 193 0
-242 235 193 0
-243 292 236 0
-243 292 194 0
-243 236 194 0
-244 293 237 0
-244 293 195 0
-244 237 195 0
-245 294 238 0
-245 294 196 0
-245 238 196 0
-239 -288 -232 -190 0
-240 -289 -233 -191 0
-241 -290 -234 -192 0
-242 -291 -235 -193 0
-243 -292 -236 -194 0
-244 -293 -237 -195 0
-245 -294 -238 -196 0
246 247 248 249 250 251 252 0
-500 -501 0
-500 -502 0
-501 -502 0
-503 -504 0
-503 -505 0
-504 -505 0
-246 500 0
-246 503 0
-247 500 0
-247 504 0
-248 500 0
-248 505 0
-249 501 0
-249 503 0
-250 501 0
-250 504 0
-251 501 0
-251 505 0
-252 502 0
-252 503 0
-246 295 253 0
-246 295 197 0
-246 253 197 0
-247 296 254 0
-247 296 198 0
-247 254 198 0
-248 297 255 0
-248 297 199 0
-248 255 199 0
-249 298 256 0
-249 298 200 0
-249 256 200 0
-250 299 257 0
-250 299 201 0
-250 257 201 0
-251 300 258 0
-251 300 202 0
-251 258 202 0
-252 301 259 0
-252 301 203 0
-252 259 203 0
-246 -295 -253 -197 0
-247 -296 -254 -198 0
-248 -297 -255 -199 0
-249 -298 -256 -200 0
-250 -299 -257 -201 0
-251 -300 -258 -202 0
-252 -301 -259 -203 0
253 254 255 256 257 258 259 0
-506 -507 0
-506 -508 0
-507 -508 0
-509 -510 0
-509 -511 0
-510 -511 0
-253 506 0
-253 509 0
-254 506 0
-254 510 0
-255 506 0
-255 511 0
-256 507 0
-256 509 0
-257 507 0
-257 510 0
-258 507 0
-258 511 0
-259 508 0
-259 509 0
-253 302 260 204 0
-253 302 260 246 0
-253 302 204 246 0
-253 260 204 246 0
-254 303 261 205 0
-254 303 261 247 0
-254 303 205 247 0
-254 261 205 247 0
-255 304 262 206 0
-255 304 262 248 0
-255 304 206 248 0
-255 262 206 248 0
-256 305 263 207 0
-256 305 263 249 0
-256 305 207 249 0
-256 263 207 249 0
-257 306 264 208 0
-257 306 264 250 0
-257 306 208 250 0
-257 264 208 250 0
-258 307 265 209 0
-258 307 265 251 0
-258 307 209 251 0
-258 265 209 251 0
-259 308 266 210 0
-259 308 266 252 0
-259 308 210 252 0
-259 266 210 252 0
-253 -302 -260 -204 0
-253 -302 -260 -246 0
-253 -302 -204 -246 0
-253 -260 -204 -246 0
-254 -303 -261 -205 0
-254 -303 -261 -247 0
-254 -303 -205 -247 0
-254 -261 -205 -247 0
-255 -304 -262 -206 0
-255 -304 -262 -248 0
-255 -304 -206 -248 0
-255 -262 -206 -248 0
-256 -305 -263 -207 0
-256 -305 -263 -249 0
-256 -305 -207 -249 0
-256 -263 -207 -249 0
-257 -306 -264 -208 0
-257 -306 -264 -250 0
-257 -306 -208 -250 0
-257 -264 -208 -250 0
-258 -307 -265 -209 0
-258 -307 -265 -251 0
-258 -307 -209 -251 0
-258 -265 -209 -251 0
-259 -308 -266 -210 0
-259 -308 -266 -252 0
-259 -308 -210 -252 0
-259 -266 -210 -252 0
261 0
-260 0
-262 0
-263 0
-264 0
-265 0
-266 0
310 268 212 254 0
-310 -268 0
-310 -212 0
-310 -254 0
-268 -212 0
-268 -254 0
-212 -254 0
270 0
-267 0
-268 0
-269 0
-271 0
-272 0
-273 0
319 277 221 263 0
-319 -277 0
-319 -221 0
-319 -263 0
-277 -221 0
-277 -263 0
-221 -263 0
274 275 276 277 278 279 280 0
-512 -513 0
-512 -514 0
-513 -514 0
-515 -516 0
-515 -517 0
-516 -517 0
-274 512 0
-274 515 0
-275 512 0
-275 516 0
-276 512 0
-276 517 0
-277 513 0
-277 515 0
-278 513 0
-278 516 0
-279 513 0
-279 517 0
-280 514 0
-280 515 0
-274 323 281 225 0
-274 323 281 267 0
-274 323 225 267 0
-274 281 225 267 0
-275 324 282 226 0
-275 324 282 268 0
-275 324 226 268 0
-275 282 226 268 0
-276 325 283 227 0
-276 325 283 269 0
-276 325 227 269 0
-276 283 227 269 0
-277 326 284 228 0
-277 326 284 270 0
-277 326 228 270 0
-277 284 228 270 0
-278 327 285 229 0
-278 327 285 271 0
-278 327 229 271 0
-278 285 229 271 0
-279 328 286 230 0
-279 328 286 272 0
-279 328 230 272 0
-279 286 230 272 0
-280 329 287 231 0
-280 329 287 273 0
-280 329 231 273 0
-280 287 231 273 0
-274 -323 -281 -225 0
-274 -323 -281 -267 0
-274 -323 -225 -267 0
-274 -281 -225 -267 0
-275 -324 -282 -226 0
-275 -324 -282 -268 0
-275 -324 -226 -268 0
-275 -282 -226 -268 0
-276 -325 -283 -227 0
-276 -325 -283 -269 0
-276 -325 -227 -269 0
-276 -283 -227 -269 0
-277 -326 -284 -228 0
-277 -326 -284 -270 0
-277 -326 -228 -270 0
-277 -284 -228 -270 0
-278 -327 -285 -229 0
-278 -327 -285 -271 0
-278 -327 -229 -271 0
-278 -285 -229 -271 0
-279 -328 -286 -230 0
-279 -328 -286 -272 0
-279 -328 -230 -272 0
-279 -286 -230 -272 0
-280 -329 -287 -231 0
-280 -329 -287 -273 0
-280 -329 -231 -273 0
-280 -287 -231 -273 0
286 0
-281 0
-282 0
-283 0
-284 0
-285 0
-287 0
335 293 237 279 0
-335 -293 0
-335 -237 0
-335 -279 0
-293 -237 0
-293 -279 0
-237 -279 0
288 289 290 291 292 293 294 0
-518 -519 0
-518 -520 0
-519 -520 0
-521 -522 0
-521 -523 0
-522 -523 0
-288 518 0
-288 521 0
-289 518 0
-289 522 0
-290 518 0
-290 523 0
-291 519 0
-291 521 0
-292 519 0
-292 522 0
-293 519 0
-293 523 0
-294 520 0
-294 521 0
-288 337 281 0
-288 337 239 0
-288 281 239 0
-289 338 282 0
-289 338 240 0
-289 282 240 0
-290 339 283 0
-290 339 241 0
-290 283 241 0
-291 340 284 0
-291 340 242 0
-291 284 242 0
-292 341 285 0
-292 341 243 0
-292 285 243 0
-293 342 286 0
-293 342 244 0
-293 286 244 0
-294 343 287 0
-294 343 245 0
-294 287 245 0
-288 -337 -281 -239 0
-289 -338 -282 -240 0
-290 -339 -283 -241 0
-291 -340 -284 -242 0
-292 -341 -285 -243 0
-293 -342 -286 -244 0
-294 -343 -287 -245 0
301 0
-295 0
-296 0
-297 0
-298 0
-299 0
-300 0
252 308 0
-252 -308 0
302 303 304 305 306 307 308 0
-524 -525 0
-524 -526 0
-525 -526 0
-527 -528 0
-527 -529 0
-528 -529 0
-302 524 0
-302 527 0
-303 524 0
-303 528 0
-304 524 0
-304 529 0
-305 525 0
-305 527 0
-306 525 0
-306 528 0
-307 525 0
-307 529 0
-308 526 0
-308 527 0
-302 253 309 0
-302 253 295 0
-302 309 295 0
-303 254 310 0
-303 254 296 0
-303 310 296 0
-304 255 311 0
-304 255 297 0
-304 311 297 0
-305 256 312 0
-305 256 298 0
-305 312 298 0
-306 257 313 0
-306 257 299 0
-306 313 299 0
-307 258 314 0
-307 258 300 0
-307 314 300 0
-308 259 315 0
-308 259 301 0
-308 315 301 0
-302 -253 -309 -295 0
-303 -254 -310 -296 0
-304 -255 -311 -297 0
-305 -256 -312 -298 0
-306 -257 -313 -299 0
-307 -258 -314 -300 0
-308 -259 -315 -301 0
309 310 311 312 313 314 315 0
-530 -531 0
-530 -532 0
-531 -532 0
-533 -534 0
-533 -535 0
-534 -535 0
-309 530 0
-309 533 0
-310 530 0
-310 534 0
-311 530 0
-311 535 0
-312 531 0
-312 533 0
-313 531 0
-313 534 0
-314 531 0
-314 535 0
-315 532 0
-315 533 0
-309 260 316 0
-309 260 302 0
-309 316 302 0
-310 261 317 0
-310 261 303 0
-310 317 303 0
-311 262 318 0
-311 262 304 0
-311 318 304 0
-312 263 319 0
-312 263 305 0
-312 319 305 0
-313 264 320 0
-313 264 306 0
-313 320 306 0
-314 265 321 0
-314 265 307 0
-314 321 307 0
-315 266 322 0
-315 266 308 0
-315 322 308 0
-309 -260 -316 -302 0
-310 -261 -317 -303 0
-311 -262 -318 -304 0
-312 -263 -319 -305 0
-313 -264 -320 -306 0
-314 -265 -321 -307 0
-315 -266 -322 -308 0
316 317 318 319 320 321 322 0
-536 -537 0
-536 -538 0
-537 -538 0
-539 -540 0
-539 -541 0
-540 -541 0
-316 536 0
-316 539 0
-317 536 0
-317 540 0
-318 536 0
-318 541 0
-319 537 0
-319 539 0
-320 537 0
-320 540 0
-321 537 0
-321 541 0
-322 538 0
-322 539 0
-316 267 323 0
-316 267 309 0
-316 323 309 0
-317 268 324 0
-317 268 310 0
-317 324 310 0
-318 269 325 0
-318 269 311 0
-318 325 311 0
-319 270 326 0
-319 270 312 0
-319 326 312 0
-320 271 327 0
-320 271 313 0
-320 327 313 0
-321 272 328 0
-321 272 314 0
-321 328 314 0
-322 273 329 0
-322 273 315 0
-322 329 315 0
-316 -267 -323 -309 0
-317 -268 -324 -310 0
-318 -269 -325 -311 0
-319 -270 -326 -312 0
-320 -271 -327 -313 0
-321 -272 -328 -314 0
-322 -273 -329 -315 0
323 324 325 326 327 328 329 0
-542 -543 0
-542 -544 0
-543 -544 0
-545 -546 0
-545 -547 0
-546 -547 0
-323 542 0
-323 545 0
-324 542 0
-324 546 0
-325 542 0
-325 547 0
-326 543 0
-326 545 0
-327 543 0
-327 546 0
-328 543 0
-328 547 0
-329 544 0
-329 545 0
-323 274 330 0
-323 274 316 0
-323 330 316 0
-324 275 331 0
-324 275 317 0
-324 331 317 0
-325 276 332 0
-325 276 318 0
-325 332 318 0
-326 277 333 0
-326 277 319 0
-326 333 319 0
-327 278 334 0
-327 278 320 0
-327 334 320 0
-328 279 335 0
-328 279 321 0
-328 335 321 0
-329 280 336 0
-329 280 322 0
-329 336 322 0
-323 -274 -330 -316 0
-324 -275 -331 -317 0
-325 -276 -332 -318 0
-326 -277 -333 -319 0
-327 -278 -334 -320 0
-328 -279 -335 -321 0
-329 -280 -336 -322 0
330 331 332 333 334 335 336 0
-548 -549 0
-548 -550 0
-549 -550 0
-551 -552 0
-551 -553 0
-552 -553 0
-330 548 0
-330 551 0
-331 548 0
-331 552 0
-332 548 0
-332 553 0
-333 549 0
-333 551 0
-334 549 0
-334 552 0
-335 549 0
-335 553 0
-336 550 0
-336 551 0
-330 281 337 0
-330 281 323 0
-330 337 323 0
-331 282 338 0
-331 282 324 0
-331 338 324 0
-332 283 339 0
-332 283 325 0
-332 339 325 0
-333 284 340 0
-333 284 326 0
-333 340 326 0
-334 285 341 0
-334 285 327 0
-334 341 327 0
-335 286 342 0
-335 286 328 0
-335 342 328 0
-336 287 343 0
-336 287 329 0
-336 343 329 0
-330 -281 -337 -323 0
-331 -282 -338 -324 0
-332 -283 -339 -325 0
-333 -284 -340 -326 0
-334 -285 -341 -327 0
-335 -286 -342 -328 0
-336 -287 -343 -329 0
341 0
-337 0
-338 0
-339 0
-340 0
-342 0
-343 0
292 334 0
-292 -334 0
8 57 155 204 253 302 0
58 65 72 79 86 93 0
100 114 121 128 135 142 0
149 156 163 170 184 191 0
198 205 212 219 226 233 240 0
59 66 73 80 87 94 0
101 115 122 129 136 143 0
60 67 74 81 88 95 0
102 116 123 130 137 144 0
151 158 165 172 186 193 0
200 207 214 221 228 235 242 0
81 130 228 277 326 0
61 68 75 82 89 96 0
103 117 124 131 138 145 0
152 159 166 173 187 194 0
201 208 215 222 229 236 243 0
250 257 278 292 0
104 118 125 132 139 146 0
153 160 167 174 188 195 0
202 209 216 223 230 237 244 0
13 62 160 209 258 307 0
69 118 167 216 314 0
76 125 174 223 321 0
83 132 230 279 328 0
154 161 168 175 189 196 0
203 210 217 224 231 238 245 0
252 259 280 294 0